p wcnf 139 208 209 
1 -105 97 0 
1 -104 20 0 
1 135 90 0 
1 -101 134 0 
1 72 77 0 
1 -34 94 0 
1 67 114 0 
1 8 72 0 
1 66 -71 0 
1 20 84 0 
1 -21 135 0 
1 128 134 0 
1 64 129 0 
1 129 -2 0 
1 -26 -71 0 
1 105 -37 0 
1 137 -102 0 
1 26 22 0 
1 -43 -51 0 
1 127 65 0 
1 -64 -116 0 
1 28 -36 0 
1 80 36 0 
1 125 135 0 
1 17 -69 0 
1 112 -119 0 
1 91 -26 0 
1 -133 123 0 
1 48 -7 0 
1 19 120 0 
1 137 -99 0 
1 13 104 0 
1 -14 -81 0 
1 -57 -121 0 
1 -55 -3 0 
1 -84 103 0 
1 8 -28 0 
1 103 -86 0 
1 -20 -93 0 
1 -25 59 0 
1 47 3 0 
1 -84 -25 0 
1 -63 -62 0 
1 -16 15 0 
1 -2 79 0 
1 -65 3 0 
1 24 -74 0 
1 63 115 0 
1 43 -59 0 
1 -98 -11 0 
1 32 94 0 
1 -45 -54 0 
1 -113 137 0 
1 128 -120 0 
1 -41 -36 0 
1 55 127 0 
1 129 9 0 
1 -73 -113 0 
1 120 11 0 
1 47 46 0 
1 -78 -60 0 
1 29 8 0 
1 -68 -38 0 
1 103 7 0 
1 -136 -8 0 
1 72 103 0 
1 61 -102 0 
1 66 68 0 
1 -2 114 0 
1 -27 119 0 
1 -7 50 0 
1 -9 3 0 
1 11 49 0 
1 -76 135 0 
1 105 60 0 
1 49 129 0 
1 33 16 0 
1 104 -41 0 
1 -15 -26 0 
1 67 128 0 
1 -4 -136 0 
1 -88 -30 0 
1 -2 106 0 
1 -126 -47 0 
1 46 -79 0 
1 -84 117 0 
1 -131 24 0 
1 -139 53 0 
1 42 -73 0 
1 118 2 0 
1 126 45 0 
1 -82 55 0 
1 -87 -76 0 
1 -124 2 0 
1 114 3 0 
1 118 32 0 
1 -57 78 0 
1 117 56 0 
1 -110 -78 0 
1 27 100 0 
1 31 -93 0 
1 -136 45 0 
1 78 53 0 
1 -51 76 0 
1 -119 92 0 
1 9 29 0 
1 2 18 0 
1 -139 -23 0 
1 -43 85 0 
1 11 -25 0 
1 -56 -8 0 
1 56 -49 0 
1 22 53 0 
1 -97 103 0 
1 -137 91 0 
1 56 105 0 
1 113 -13 0 
1 -72 137 0 
1 -10 114 0 
1 -125 91 0 
1 -10 106 0 
1 100 -97 0 
1 8 76 0 
1 44 -96 0 
1 25 -139 0 
1 -72 40 0 
1 -38 -61 0 
1 69 28 0 
1 76 32 0 
1 -67 45 0 
1 51 -127 0 
1 -111 136 0 
1 -105 -54 0 
1 -81 71 0 
1 32 -126 0 
1 -53 -46 0 
1 25 -48 0 
1 73 110 0 
1 -134 4 0 
1 -22 116 0 
1 49 -91 0 
1 111 -102 0 
1 116 83 0 
1 128 52 0 
1 -108 61 0 
1 -26 -2 0 
1 -93 17 0 
1 -81 -7 0 
1 41 131 0 
1 47 -62 0 
1 -57 72 0 
1 51 57 0 
1 17 72 0 
1 104 88 0 
1 -102 -109 0 
1 -138 -108 0 
1 -127 -139 0 
1 8 20 0 
1 -100 -109 0 
1 -94 23 0 
1 -106 74 0 
1 83 61 0 
1 -44 80 0 
1 102 2 0 
1 -69 23 0 
1 -36 76 0 
1 131 -132 0 
1 43 13 0 
1 -134 -130 0 
1 47 4 0 
1 73 51 0 
1 -43 91 0 
1 9 117 0 
1 -101 -130 0 
1 -15 -81 0 
1 -68 -139 0 
1 -54 -31 0 
1 -122 -58 0 
1 63 41 0 
1 -45 94 0 
1 -84 -56 0 
1 9 113 0 
1 90 -28 0 
1 -60 -97 0 
1 -84 66 0 
1 -114 86 0 
1 -22 97 0 
1 -10 62 0 
1 -47 -95 0 
1 54 32 0 
1 -124 118 0 
1 44 13 0 
1 -40 63 0 
1 128 -46 0 
1 -112 47 0 
1 -14 -42 0 
1 39 64 0 
1 62 73 0 
1 -132 -65 0 
1 -130 99 0 
1 139 -104 0 
1 -110 -17 0 
1 12 -45 0 
1 -57 -103 0 
1 -97 -76 0 
1 -117 130 0 
1 -93 -113 0 
1 80 26 0 
